(set-option :produce-models true)
(set-logic QF_UF)
(declare-fun p2() Bool)
(declare-fun p0() Bool)
(declare-fun p7() Bool)
(declare-fun p1() Bool)
(declare-fun p3() Bool)
(declare-fun p6() Bool)
(declare-fun p4() Bool)
(declare-fun p5() Bool)
(assert
(and (or (not p2) (not p2) (not p0)) (or p0 p7 (not p1)) (or (not p3) p6 (not p0)) (or p2 p6 (not p2)) (or (not p4) p4 (not p4)) (or p1 p0 p6) (or (not p7) p2 p6) (or (not p2) p1 p2) (or p0 p0 p1) (or p7 p6 (not p4)) (or p5 (not p0) (not p4)) (or p7 (not p2) p1) (or (not p7) p7 (not p1)) (or (not p3) p4 (not p0)) (or (not p6) (not p0) p4) (or p3 p2 p6) (or (not p3) p1 p0) (or (not p0) p6 (not p6)) (or p4 p2 p6) (or (not p1) (not p0) p6) (or (not p1) p4 (not p5)) (or p4 p0 (not p0)) (or p7 (not p2) p2) (or p2 p5 (not p1)) (or (not p1) (not p4) (not p4)) (or p3 (not p1) (not p0)) (or (not p1) p0 (not p2)) (or (not p6) p6 p7) (or (not p7) p1 p3) (or p3 (not p0) (not p2)) (or (not p3) (not p6) p4) (or p2 (not p5) p1) (or (not p6) (not p5) (not p2)) (or p4 (not p4) (not p0)) (or (not p4) p4 (not p4)) (or (not p7) (not p4) (not p2)) (or (not p4) (not p5) (not p7)) (or (not p6) (not p0) p0) (or p1 (not p3) (not p3)))
)
(check-sat)
(get-model)
